\ Created by MOSEK version 6.0.0.85
minimize
obj:  + 0 x1 + x2 + x3 + x4
subject to
c1:  + x1 + x2 + x3 + x4 = 1e+000
c2:  + x2 + x4 = 5.000000000000001e-001
c3:  + 2e+000 x3 + 2e+000 x4 = 1e+000
bounds
 0 <= x1 <= +infinity
 0 <= x2 <= +infinity
 0 <= x3 <= +infinity
 0 <= x4 <= +infinity
end
